solution status: time limit reached
objective value:                                   88
shell_j_$_148                                       1 	(obj:0)
shell_i_$_95                                        1 	(obj:0)
shell_i_$_67                                        1 	(obj:0)
shell_i_$_103                                       1 	(obj:0)
shell_i_$_141                                       1 	(obj:0)
shell_i_$_53                                        1 	(obj:0)
shell_i_$_60                                        1 	(obj:0)
shell_i_$_96                                        1 	(obj:0)
shell_i_$_91                                        1 	(obj:0)
shell_j_$_59                                        1 	(obj:0)
shell_j_$_145                                       1 	(obj:0)
shell_j_$_149                                       1 	(obj:0)
shell_j_$_94                                        1 	(obj:0)
shell_i_$_87                                        1 	(obj:0)
shell_j_$_144                                       1 	(obj:0)
shell_i_$_98                                        1 	(obj:0)
shell_j_$_147                                       1 	(obj:0)
shell_j_$_58                                        1 	(obj:0)
shell_i_$_150                                       1 	(obj:0)
shell_j_$_85                                        1 	(obj:0)
shell_i_$_83                                        1 	(obj:0)
shell_i_$_68                                        1 	(obj:0)
shell_j_$_99                                        1 	(obj:0)
shell_i_$_122                                       1 	(obj:0)
shell_i_$_54                                        1 	(obj:0)
shell_i_$_121                                       1 	(obj:0)
shell_j_$_146                                       1 	(obj:0)
shell_i_$_43                                        1 	(obj:0)
shell_i_$_61                                        1 	(obj:0)
shell_j_$_63                                        1 	(obj:0)
shell_j_$_142                                       1 	(obj:0)
shell_i_$_123                                       1 	(obj:0)
$_53_x                                            -12 	(obj:0)
$_87_x                                            -12 	(obj:0)
$_87_y                                            -10 	(obj:0)
$_87_z                                            -20 	(obj:0)
$_53_y                                            -11 	(obj:0)
$_53_z                                            -25 	(obj:0)
$_144_x                                           -12 	(obj:0)
$_144_y                                           -12 	(obj:0)
$_144_z                                           -24 	(obj:0)
$_67_x                                            -12 	(obj:0)
$_67_y                                             -9 	(obj:0)
$_98_x                                            -12 	(obj:0)
$_98_y                                             -9 	(obj:0)
$_98_z                                            -25 	(obj:0)
$_60_x                                            -12 	(obj:0)
$_60_y                                             -8 	(obj:0)
$_147_x                                           -12 	(obj:0)
$_147_y                                           -12 	(obj:0)
$_147_z                                           -21 	(obj:0)
$_60_z                                            -25 	(obj:0)
$_67_z                                            -23 	(obj:0)
$_58_x                                             -8 	(obj:0)
$_58_y                                            -12 	(obj:0)
$_58_z                                            -25 	(obj:0)
$_148_y                                           -12 	(obj:0)
$_96_x                                            -12 	(obj:0)
$_150_x                                           -12 	(obj:0)
$_150_y                                           -10 	(obj:0)
$_150_z                                           -21 	(obj:0)
$_96_y                                             -9 	(obj:0)
$_96_z                                            -20 	(obj:0)
$_85_x                                            -12 	(obj:0)
$_85_y                                            -12 	(obj:0)
$_85_z                                            -20 	(obj:0)
$_95_x                                            -12 	(obj:0)
$_103_x                                           -12 	(obj:0)
$_83_x                                            -12 	(obj:0)
$_83_y                                            -11 	(obj:0)
$_83_z                                            -20 	(obj:0)
$_91_x                                            -12 	(obj:0)
$_91_y                                             -9 	(obj:0)
$_68_x                                            -12 	(obj:0)
$_68_y                                            -10 	(obj:0)
$_68_z                                            -23 	(obj:0)
$_91_z                                            -24 	(obj:0)
$_103_y                                            -8 	(obj:0)
$_99_x                                             -8 	(obj:0)
$_99_y                                            -12 	(obj:0)
$_99_z                                            -24 	(obj:0)
$_103_z                                           -20 	(obj:0)
$_59_x                                             -8 	(obj:0)
$_122_x                                           -12 	(obj:0)
$_122_y                                           -11 	(obj:0)
$_122_z                                           -24 	(obj:0)
$_59_y                                            -12 	(obj:0)
$_59_z                                            -21 	(obj:0)
$_54_x                                            -12 	(obj:0)
$_54_y                                             -6 	(obj:0)
$_54_z                                            -23 	(obj:0)
$_95_y                                            -11 	(obj:0)
$_95_z                                            -22 	(obj:0)
$_121_x                                           -12 	(obj:0)
$_121_y                                            -8 	(obj:0)
$_121_z                                           -24 	(obj:0)
$_145_x                                           -11 	(obj:0)
$_145_y                                           -12 	(obj:0)
$_146_x                                            -8 	(obj:0)
$_146_y                                           -12 	(obj:0)
$_146_z                                           -18 	(obj:0)
$_145_z                                           -20 	(obj:0)
$_141_x                                           -12 	(obj:0)
$_43_x                                            -12 	(obj:0)
$_43_y                                            -10 	(obj:0)
$_43_z                                            -24 	(obj:0)
$_141_y                                           -10 	(obj:0)
$_149_x                                           -12 	(obj:0)
$_61_x                                            -12 	(obj:0)
$_61_y                                            -10 	(obj:0)
$_61_z                                            -25 	(obj:0)
$_149_y                                           -12 	(obj:0)
$_149_z                                           -25 	(obj:0)
$_63_x                                            -11 	(obj:0)
$_63_y                                            -12 	(obj:0)
$_63_z                                            -24 	(obj:0)
$_141_z                                           -22 	(obj:0)
$_148_z                                           -23 	(obj:0)
$_142_x                                            -8 	(obj:0)
$_142_y                                           -12 	(obj:0)
$_142_z                                           -22 	(obj:0)
$_94_x                                            -12 	(obj:0)
$_94_y                                            -12 	(obj:0)
$_123_x                                           -12 	(obj:0)
$_123_y                                            -6 	(obj:0)
$_123_z                                           -25 	(obj:0)
$_94_z                                            -22 	(obj:0)
$_148_x                                           -12 	(obj:0)
x163                                                1 	(obj:1)
x168                                                1 	(obj:1)
x175                                                4 	(obj:1)
x177                                                1 	(obj:1)
x180                                                1 	(obj:1)
x181                                                1 	(obj:1)
x189                                                3 	(obj:1)
x190                                                2 	(obj:1)
x193                                                4 	(obj:1)
x201                                                1 	(obj:1)
x203                                                4 	(obj:1)
x205                                                2 	(obj:1)
x206                                                1 	(obj:1)
x208                                                1 	(obj:1)
x217                                                2 	(obj:1)
x219                                                2 	(obj:1)
x220                                                4 	(obj:1)
x225                                                2 	(obj:1)
x232                                                2 	(obj:1)
x236                                                4 	(obj:1)
x241                                                3 	(obj:1)
x244                                                2 	(obj:1)
x247                                                3 	(obj:1)
x251                                                4 	(obj:1)
x254                                                4 	(obj:1)
x264                                                5 	(obj:1)
x267                                                1 	(obj:1)
x272                                                4 	(obj:1)
x274                                                5 	(obj:1)
x276                                                2 	(obj:1)
x281                                                1 	(obj:1)
x284                                                1 	(obj:1)
x287                                                4 	(obj:1)
x291                                                1 	(obj:1)
x294                                                5 	(obj:1)
